p cnf 270 3270
1 2 3 4 5 6 7 8 9 0
10 11 12 13 14 15 16 17 18 0
19 20 21 22 23 24 25 26 27 0
28 29 30 31 32 33 34 35 36 0
37 38 39 40 41 42 43 44 45 0
46 47 48 49 50 51 52 53 54 0
55 56 57 58 59 60 61 62 63 0
64 65 66 67 68 69 70 71 72 0
73 74 75 76 77 78 79 80 81 0
82 83 84 85 86 87 88 89 90 0
91 92 93 94 95 96 97 98 99 0
100 101 102 103 104 105 106 107 108 0
109 110 111 112 113 114 115 116 117 0
118 119 120 121 122 123 124 125 126 0
127 128 129 130 131 132 133 134 135 0
136 137 138 139 140 141 142 143 144 0
145 146 147 148 149 150 151 152 153 0
154 155 156 157 158 159 160 161 162 0
163 164 165 166 167 168 169 170 171 0
172 173 174 175 176 177 178 179 180 0
181 182 183 184 185 186 187 188 189 0
190 191 192 193 194 195 196 197 198 0
199 200 201 202 203 204 205 206 207 0
208 209 210 211 212 213 214 215 216 0
217 218 219 220 221 222 223 224 225 0
226 227 228 229 230 231 232 233 234 0
235 236 237 238 239 240 241 242 243 0
244 245 246 247 248 249 250 251 252 0
253 254 255 256 257 258 259 260 261 0
262 263 264 265 266 267 268 269 270 0
-1 -2 0
-1 -3 0
-1 -4 0
-1 -5 0
-1 -6 0
-1 -7 0
-1 -8 0
-1 -9 0
-2 -3 0
-2 -4 0
-2 -5 0
-2 -6 0
-2 -7 0
-2 -8 0
-2 -9 0
-3 -4 0
-3 -5 0
-3 -6 0
-3 -7 0
-3 -8 0
-3 -9 0
-4 -5 0
-4 -6 0
-4 -7 0
-4 -8 0
-4 -9 0
-5 -6 0
-5 -7 0
-5 -8 0
-5 -9 0
-6 -7 0
-6 -8 0
-6 -9 0
-7 -8 0
-7 -9 0
-8 -9 0
-10 -11 0
-10 -12 0
-10 -13 0
-10 -14 0
-10 -15 0
-10 -16 0
-10 -17 0
-10 -18 0
-11 -12 0
-11 -13 0
-11 -14 0
-11 -15 0
-11 -16 0
-11 -17 0
-11 -18 0
-12 -13 0
-12 -14 0
-12 -15 0
-12 -16 0
-12 -17 0
-12 -18 0
-13 -14 0
-13 -15 0
-13 -16 0
-13 -17 0
-13 -18 0
-14 -15 0
-14 -16 0
-14 -17 0
-14 -18 0
-15 -16 0
-15 -17 0
-15 -18 0
-16 -17 0
-16 -18 0
-17 -18 0
-19 -20 0
-19 -21 0
-19 -22 0
-19 -23 0
-19 -24 0
-19 -25 0
-19 -26 0
-19 -27 0
-20 -21 0
-20 -22 0
-20 -23 0
-20 -24 0
-20 -25 0
-20 -26 0
-20 -27 0
-21 -22 0
-21 -23 0
-21 -24 0
-21 -25 0
-21 -26 0
-21 -27 0
-22 -23 0
-22 -24 0
-22 -25 0
-22 -26 0
-22 -27 0
-23 -24 0
-23 -25 0
-23 -26 0
-23 -27 0
-24 -25 0
-24 -26 0
-24 -27 0
-25 -26 0
-25 -27 0
-26 -27 0
-28 -29 0
-28 -30 0
-28 -31 0
-28 -32 0
-28 -33 0
-28 -34 0
-28 -35 0
-28 -36 0
-29 -30 0
-29 -31 0
-29 -32 0
-29 -33 0
-29 -34 0
-29 -35 0
-29 -36 0
-30 -31 0
-30 -32 0
-30 -33 0
-30 -34 0
-30 -35 0
-30 -36 0
-31 -32 0
-31 -33 0
-31 -34 0
-31 -35 0
-31 -36 0
-32 -33 0
-32 -34 0
-32 -35 0
-32 -36 0
-33 -34 0
-33 -35 0
-33 -36 0
-34 -35 0
-34 -36 0
-35 -36 0
-37 -38 0
-37 -39 0
-37 -40 0
-37 -41 0
-37 -42 0
-37 -43 0
-37 -44 0
-37 -45 0
-38 -39 0
-38 -40 0
-38 -41 0
-38 -42 0
-38 -43 0
-38 -44 0
-38 -45 0
-39 -40 0
-39 -41 0
-39 -42 0
-39 -43 0
-39 -44 0
-39 -45 0
-40 -41 0
-40 -42 0
-40 -43 0
-40 -44 0
-40 -45 0
-41 -42 0
-41 -43 0
-41 -44 0
-41 -45 0
-42 -43 0
-42 -44 0
-42 -45 0
-43 -44 0
-43 -45 0
-44 -45 0
-46 -47 0
-46 -48 0
-46 -49 0
-46 -50 0
-46 -51 0
-46 -52 0
-46 -53 0
-46 -54 0
-47 -48 0
-47 -49 0
-47 -50 0
-47 -51 0
-47 -52 0
-47 -53 0
-47 -54 0
-48 -49 0
-48 -50 0
-48 -51 0
-48 -52 0
-48 -53 0
-48 -54 0
-49 -50 0
-49 -51 0
-49 -52 0
-49 -53 0
-49 -54 0
-50 -51 0
-50 -52 0
-50 -53 0
-50 -54 0
-51 -52 0
-51 -53 0
-51 -54 0
-52 -53 0
-52 -54 0
-53 -54 0
-55 -56 0
-55 -57 0
-55 -58 0
-55 -59 0
-55 -60 0
-55 -61 0
-55 -62 0
-55 -63 0
-56 -57 0
-56 -58 0
-56 -59 0
-56 -60 0
-56 -61 0
-56 -62 0
-56 -63 0
-57 -58 0
-57 -59 0
-57 -60 0
-57 -61 0
-57 -62 0
-57 -63 0
-58 -59 0
-58 -60 0
-58 -61 0
-58 -62 0
-58 -63 0
-59 -60 0
-59 -61 0
-59 -62 0
-59 -63 0
-60 -61 0
-60 -62 0
-60 -63 0
-61 -62 0
-61 -63 0
-62 -63 0
-64 -65 0
-64 -66 0
-64 -67 0
-64 -68 0
-64 -69 0
-64 -70 0
-64 -71 0
-64 -72 0
-65 -66 0
-65 -67 0
-65 -68 0
-65 -69 0
-65 -70 0
-65 -71 0
-65 -72 0
-66 -67 0
-66 -68 0
-66 -69 0
-66 -70 0
-66 -71 0
-66 -72 0
-67 -68 0
-67 -69 0
-67 -70 0
-67 -71 0
-67 -72 0
-68 -69 0
-68 -70 0
-68 -71 0
-68 -72 0
-69 -70 0
-69 -71 0
-69 -72 0
-70 -71 0
-70 -72 0
-71 -72 0
-73 -74 0
-73 -75 0
-73 -76 0
-73 -77 0
-73 -78 0
-73 -79 0
-73 -80 0
-73 -81 0
-74 -75 0
-74 -76 0
-74 -77 0
-74 -78 0
-74 -79 0
-74 -80 0
-74 -81 0
-75 -76 0
-75 -77 0
-75 -78 0
-75 -79 0
-75 -80 0
-75 -81 0
-76 -77 0
-76 -78 0
-76 -79 0
-76 -80 0
-76 -81 0
-77 -78 0
-77 -79 0
-77 -80 0
-77 -81 0
-78 -79 0
-78 -80 0
-78 -81 0
-79 -80 0
-79 -81 0
-80 -81 0
-82 -83 0
-82 -84 0
-82 -85 0
-82 -86 0
-82 -87 0
-82 -88 0
-82 -89 0
-82 -90 0
-83 -84 0
-83 -85 0
-83 -86 0
-83 -87 0
-83 -88 0
-83 -89 0
-83 -90 0
-84 -85 0
-84 -86 0
-84 -87 0
-84 -88 0
-84 -89 0
-84 -90 0
-85 -86 0
-85 -87 0
-85 -88 0
-85 -89 0
-85 -90 0
-86 -87 0
-86 -88 0
-86 -89 0
-86 -90 0
-87 -88 0
-87 -89 0
-87 -90 0
-88 -89 0
-88 -90 0
-89 -90 0
-91 -92 0
-91 -93 0
-91 -94 0
-91 -95 0
-91 -96 0
-91 -97 0
-91 -98 0
-91 -99 0
-92 -93 0
-92 -94 0
-92 -95 0
-92 -96 0
-92 -97 0
-92 -98 0
-92 -99 0
-93 -94 0
-93 -95 0
-93 -96 0
-93 -97 0
-93 -98 0
-93 -99 0
-94 -95 0
-94 -96 0
-94 -97 0
-94 -98 0
-94 -99 0
-95 -96 0
-95 -97 0
-95 -98 0
-95 -99 0
-96 -97 0
-96 -98 0
-96 -99 0
-97 -98 0
-97 -99 0
-98 -99 0
-100 -101 0
-100 -102 0
-100 -103 0
-100 -104 0
-100 -105 0
-100 -106 0
-100 -107 0
-100 -108 0
-101 -102 0
-101 -103 0
-101 -104 0
-101 -105 0
-101 -106 0
-101 -107 0
-101 -108 0
-102 -103 0
-102 -104 0
-102 -105 0
-102 -106 0
-102 -107 0
-102 -108 0
-103 -104 0
-103 -105 0
-103 -106 0
-103 -107 0
-103 -108 0
-104 -105 0
-104 -106 0
-104 -107 0
-104 -108 0
-105 -106 0
-105 -107 0
-105 -108 0
-106 -107 0
-106 -108 0
-107 -108 0
-109 -110 0
-109 -111 0
-109 -112 0
-109 -113 0
-109 -114 0
-109 -115 0
-109 -116 0
-109 -117 0
-110 -111 0
-110 -112 0
-110 -113 0
-110 -114 0
-110 -115 0
-110 -116 0
-110 -117 0
-111 -112 0
-111 -113 0
-111 -114 0
-111 -115 0
-111 -116 0
-111 -117 0
-112 -113 0
-112 -114 0
-112 -115 0
-112 -116 0
-112 -117 0
-113 -114 0
-113 -115 0
-113 -116 0
-113 -117 0
-114 -115 0
-114 -116 0
-114 -117 0
-115 -116 0
-115 -117 0
-116 -117 0
-118 -119 0
-118 -120 0
-118 -121 0
-118 -122 0
-118 -123 0
-118 -124 0
-118 -125 0
-118 -126 0
-119 -120 0
-119 -121 0
-119 -122 0
-119 -123 0
-119 -124 0
-119 -125 0
-119 -126 0
-120 -121 0
-120 -122 0
-120 -123 0
-120 -124 0
-120 -125 0
-120 -126 0
-121 -122 0
-121 -123 0
-121 -124 0
-121 -125 0
-121 -126 0
-122 -123 0
-122 -124 0
-122 -125 0
-122 -126 0
-123 -124 0
-123 -125 0
-123 -126 0
-124 -125 0
-124 -126 0
-125 -126 0
-127 -128 0
-127 -129 0
-127 -130 0
-127 -131 0
-127 -132 0
-127 -133 0
-127 -134 0
-127 -135 0
-128 -129 0
-128 -130 0
-128 -131 0
-128 -132 0
-128 -133 0
-128 -134 0
-128 -135 0
-129 -130 0
-129 -131 0
-129 -132 0
-129 -133 0
-129 -134 0
-129 -135 0
-130 -131 0
-130 -132 0
-130 -133 0
-130 -134 0
-130 -135 0
-131 -132 0
-131 -133 0
-131 -134 0
-131 -135 0
-132 -133 0
-132 -134 0
-132 -135 0
-133 -134 0
-133 -135 0
-134 -135 0
-136 -137 0
-136 -138 0
-136 -139 0
-136 -140 0
-136 -141 0
-136 -142 0
-136 -143 0
-136 -144 0
-137 -138 0
-137 -139 0
-137 -140 0
-137 -141 0
-137 -142 0
-137 -143 0
-137 -144 0
-138 -139 0
-138 -140 0
-138 -141 0
-138 -142 0
-138 -143 0
-138 -144 0
-139 -140 0
-139 -141 0
-139 -142 0
-139 -143 0
-139 -144 0
-140 -141 0
-140 -142 0
-140 -143 0
-140 -144 0
-141 -142 0
-141 -143 0
-141 -144 0
-142 -143 0
-142 -144 0
-143 -144 0
-145 -146 0
-145 -147 0
-145 -148 0
-145 -149 0
-145 -150 0
-145 -151 0
-145 -152 0
-145 -153 0
-146 -147 0
-146 -148 0
-146 -149 0
-146 -150 0
-146 -151 0
-146 -152 0
-146 -153 0
-147 -148 0
-147 -149 0
-147 -150 0
-147 -151 0
-147 -152 0
-147 -153 0
-148 -149 0
-148 -150 0
-148 -151 0
-148 -152 0
-148 -153 0
-149 -150 0
-149 -151 0
-149 -152 0
-149 -153 0
-150 -151 0
-150 -152 0
-150 -153 0
-151 -152 0
-151 -153 0
-152 -153 0
-154 -155 0
-154 -156 0
-154 -157 0
-154 -158 0
-154 -159 0
-154 -160 0
-154 -161 0
-154 -162 0
-155 -156 0
-155 -157 0
-155 -158 0
-155 -159 0
-155 -160 0
-155 -161 0
-155 -162 0
-156 -157 0
-156 -158 0
-156 -159 0
-156 -160 0
-156 -161 0
-156 -162 0
-157 -158 0
-157 -159 0
-157 -160 0
-157 -161 0
-157 -162 0
-158 -159 0
-158 -160 0
-158 -161 0
-158 -162 0
-159 -160 0
-159 -161 0
-159 -162 0
-160 -161 0
-160 -162 0
-161 -162 0
-163 -164 0
-163 -165 0
-163 -166 0
-163 -167 0
-163 -168 0
-163 -169 0
-163 -170 0
-163 -171 0
-164 -165 0
-164 -166 0
-164 -167 0
-164 -168 0
-164 -169 0
-164 -170 0
-164 -171 0
-165 -166 0
-165 -167 0
-165 -168 0
-165 -169 0
-165 -170 0
-165 -171 0
-166 -167 0
-166 -168 0
-166 -169 0
-166 -170 0
-166 -171 0
-167 -168 0
-167 -169 0
-167 -170 0
-167 -171 0
-168 -169 0
-168 -170 0
-168 -171 0
-169 -170 0
-169 -171 0
-170 -171 0
-172 -173 0
-172 -174 0
-172 -175 0
-172 -176 0
-172 -177 0
-172 -178 0
-172 -179 0
-172 -180 0
-173 -174 0
-173 -175 0
-173 -176 0
-173 -177 0
-173 -178 0
-173 -179 0
-173 -180 0
-174 -175 0
-174 -176 0
-174 -177 0
-174 -178 0
-174 -179 0
-174 -180 0
-175 -176 0
-175 -177 0
-175 -178 0
-175 -179 0
-175 -180 0
-176 -177 0
-176 -178 0
-176 -179 0
-176 -180 0
-177 -178 0
-177 -179 0
-177 -180 0
-178 -179 0
-178 -180 0
-179 -180 0
-181 -182 0
-181 -183 0
-181 -184 0
-181 -185 0
-181 -186 0
-181 -187 0
-181 -188 0
-181 -189 0
-182 -183 0
-182 -184 0
-182 -185 0
-182 -186 0
-182 -187 0
-182 -188 0
-182 -189 0
-183 -184 0
-183 -185 0
-183 -186 0
-183 -187 0
-183 -188 0
-183 -189 0
-184 -185 0
-184 -186 0
-184 -187 0
-184 -188 0
-184 -189 0
-185 -186 0
-185 -187 0
-185 -188 0
-185 -189 0
-186 -187 0
-186 -188 0
-186 -189 0
-187 -188 0
-187 -189 0
-188 -189 0
-190 -191 0
-190 -192 0
-190 -193 0
-190 -194 0
-190 -195 0
-190 -196 0
-190 -197 0
-190 -198 0
-191 -192 0
-191 -193 0
-191 -194 0
-191 -195 0
-191 -196 0
-191 -197 0
-191 -198 0
-192 -193 0
-192 -194 0
-192 -195 0
-192 -196 0
-192 -197 0
-192 -198 0
-193 -194 0
-193 -195 0
-193 -196 0
-193 -197 0
-193 -198 0
-194 -195 0
-194 -196 0
-194 -197 0
-194 -198 0
-195 -196 0
-195 -197 0
-195 -198 0
-196 -197 0
-196 -198 0
-197 -198 0
-199 -200 0
-199 -201 0
-199 -202 0
-199 -203 0
-199 -204 0
-199 -205 0
-199 -206 0
-199 -207 0
-200 -201 0
-200 -202 0
-200 -203 0
-200 -204 0
-200 -205 0
-200 -206 0
-200 -207 0
-201 -202 0
-201 -203 0
-201 -204 0
-201 -205 0
-201 -206 0
-201 -207 0
-202 -203 0
-202 -204 0
-202 -205 0
-202 -206 0
-202 -207 0
-203 -204 0
-203 -205 0
-203 -206 0
-203 -207 0
-204 -205 0
-204 -206 0
-204 -207 0
-205 -206 0
-205 -207 0
-206 -207 0
-208 -209 0
-208 -210 0
-208 -211 0
-208 -212 0
-208 -213 0
-208 -214 0
-208 -215 0
-208 -216 0
-209 -210 0
-209 -211 0
-209 -212 0
-209 -213 0
-209 -214 0
-209 -215 0
-209 -216 0
-210 -211 0
-210 -212 0
-210 -213 0
-210 -214 0
-210 -215 0
-210 -216 0
-211 -212 0
-211 -213 0
-211 -214 0
-211 -215 0
-211 -216 0
-212 -213 0
-212 -214 0
-212 -215 0
-212 -216 0
-213 -214 0
-213 -215 0
-213 -216 0
-214 -215 0
-214 -216 0
-215 -216 0
-217 -218 0
-217 -219 0
-217 -220 0
-217 -221 0
-217 -222 0
-217 -223 0
-217 -224 0
-217 -225 0
-218 -219 0
-218 -220 0
-218 -221 0
-218 -222 0
-218 -223 0
-218 -224 0
-218 -225 0
-219 -220 0
-219 -221 0
-219 -222 0
-219 -223 0
-219 -224 0
-219 -225 0
-220 -221 0
-220 -222 0
-220 -223 0
-220 -224 0
-220 -225 0
-221 -222 0
-221 -223 0
-221 -224 0
-221 -225 0
-222 -223 0
-222 -224 0
-222 -225 0
-223 -224 0
-223 -225 0
-224 -225 0
-226 -227 0
-226 -228 0
-226 -229 0
-226 -230 0
-226 -231 0
-226 -232 0
-226 -233 0
-226 -234 0
-227 -228 0
-227 -229 0
-227 -230 0
-227 -231 0
-227 -232 0
-227 -233 0
-227 -234 0
-228 -229 0
-228 -230 0
-228 -231 0
-228 -232 0
-228 -233 0
-228 -234 0
-229 -230 0
-229 -231 0
-229 -232 0
-229 -233 0
-229 -234 0
-230 -231 0
-230 -232 0
-230 -233 0
-230 -234 0
-231 -232 0
-231 -233 0
-231 -234 0
-232 -233 0
-232 -234 0
-233 -234 0
-235 -236 0
-235 -237 0
-235 -238 0
-235 -239 0
-235 -240 0
-235 -241 0
-235 -242 0
-235 -243 0
-236 -237 0
-236 -238 0
-236 -239 0
-236 -240 0
-236 -241 0
-236 -242 0
-236 -243 0
-237 -238 0
-237 -239 0
-237 -240 0
-237 -241 0
-237 -242 0
-237 -243 0
-238 -239 0
-238 -240 0
-238 -241 0
-238 -242 0
-238 -243 0
-239 -240 0
-239 -241 0
-239 -242 0
-239 -243 0
-240 -241 0
-240 -242 0
-240 -243 0
-241 -242 0
-241 -243 0
-242 -243 0
-244 -245 0
-244 -246 0
-244 -247 0
-244 -248 0
-244 -249 0
-244 -250 0
-244 -251 0
-244 -252 0
-245 -246 0
-245 -247 0
-245 -248 0
-245 -249 0
-245 -250 0
-245 -251 0
-245 -252 0
-246 -247 0
-246 -248 0
-246 -249 0
-246 -250 0
-246 -251 0
-246 -252 0
-247 -248 0
-247 -249 0
-247 -250 0
-247 -251 0
-247 -252 0
-248 -249 0
-248 -250 0
-248 -251 0
-248 -252 0
-249 -250 0
-249 -251 0
-249 -252 0
-250 -251 0
-250 -252 0
-251 -252 0
-253 -254 0
-253 -255 0
-253 -256 0
-253 -257 0
-253 -258 0
-253 -259 0
-253 -260 0
-253 -261 0
-254 -255 0
-254 -256 0
-254 -257 0
-254 -258 0
-254 -259 0
-254 -260 0
-254 -261 0
-255 -256 0
-255 -257 0
-255 -258 0
-255 -259 0
-255 -260 0
-255 -261 0
-256 -257 0
-256 -258 0
-256 -259 0
-256 -260 0
-256 -261 0
-257 -258 0
-257 -259 0
-257 -260 0
-257 -261 0
-258 -259 0
-258 -260 0
-258 -261 0
-259 -260 0
-259 -261 0
-260 -261 0
-262 -263 0
-262 -264 0
-262 -265 0
-262 -266 0
-262 -267 0
-262 -268 0
-262 -269 0
-262 -270 0
-263 -264 0
-263 -265 0
-263 -266 0
-263 -267 0
-263 -268 0
-263 -269 0
-263 -270 0
-264 -265 0
-264 -266 0
-264 -267 0
-264 -268 0
-264 -269 0
-264 -270 0
-265 -266 0
-265 -267 0
-265 -268 0
-265 -269 0
-265 -270 0
-266 -267 0
-266 -268 0
-266 -269 0
-266 -270 0
-267 -268 0
-267 -269 0
-267 -270 0
-268 -269 0
-268 -270 0
-269 -270 0
-1 -28 0
-1 -46 0
-1 -55 0
-1 -64 0
-1 -82 0
-1 -91 0
-1 -100 0
-1 -127 0
-1 -136 0
-1 -163 0
-1 -172 0
-1 -181 0
-1 -190 0
-1 -199 0
-1 -208 0
-1 -226 0
-1 -244 0
-1 -262 0
-2 -29 0
-2 -47 0
-2 -56 0
-2 -65 0
-2 -83 0
-2 -92 0
-2 -101 0
-2 -128 0
-2 -137 0
-2 -164 0
-2 -173 0
-2 -182 0
-2 -191 0
-2 -200 0
-2 -209 0
-2 -227 0
-2 -245 0
-2 -263 0
-3 -30 0
-3 -48 0
-3 -57 0
-3 -66 0
-3 -84 0
-3 -93 0
-3 -102 0
-3 -129 0
-3 -138 0
-3 -165 0
-3 -174 0
-3 -183 0
-3 -192 0
-3 -201 0
-3 -210 0
-3 -228 0
-3 -246 0
-3 -264 0
-4 -31 0
-4 -49 0
-4 -58 0
-4 -67 0
-4 -85 0
-4 -94 0
-4 -103 0
-4 -130 0
-4 -139 0
-4 -166 0
-4 -175 0
-4 -184 0
-4 -193 0
-4 -202 0
-4 -211 0
-4 -229 0
-4 -247 0
-4 -265 0
-5 -32 0
-5 -50 0
-5 -59 0
-5 -68 0
-5 -86 0
-5 -95 0
-5 -104 0
-5 -131 0
-5 -140 0
-5 -167 0
-5 -176 0
-5 -185 0
-5 -194 0
-5 -203 0
-5 -212 0
-5 -230 0
-5 -248 0
-5 -266 0
-6 -33 0
-6 -51 0
-6 -60 0
-6 -69 0
-6 -87 0
-6 -96 0
-6 -105 0
-6 -132 0
-6 -141 0
-6 -168 0
-6 -177 0
-6 -186 0
-6 -195 0
-6 -204 0
-6 -213 0
-6 -231 0
-6 -249 0
-6 -267 0
-7 -34 0
-7 -52 0
-7 -61 0
-7 -70 0
-7 -88 0
-7 -97 0
-7 -106 0
-7 -133 0
-7 -142 0
-7 -169 0
-7 -178 0
-7 -187 0
-7 -196 0
-7 -205 0
-7 -214 0
-7 -232 0
-7 -250 0
-7 -268 0
-8 -35 0
-8 -53 0
-8 -62 0
-8 -71 0
-8 -89 0
-8 -98 0
-8 -107 0
-8 -134 0
-8 -143 0
-8 -170 0
-8 -179 0
-8 -188 0
-8 -197 0
-8 -206 0
-8 -215 0
-8 -233 0
-8 -251 0
-8 -269 0
-9 -36 0
-9 -54 0
-9 -63 0
-9 -72 0
-9 -90 0
-9 -99 0
-9 -108 0
-9 -135 0
-9 -144 0
-9 -171 0
-9 -180 0
-9 -189 0
-9 -198 0
-9 -207 0
-9 -216 0
-9 -234 0
-9 -252 0
-9 -270 0
-10 -28 0
-10 -37 0
-10 -73 0
-10 -100 0
-10 -109 0
-10 -127 0
-10 -154 0
-10 -163 0
-10 -172 0
-10 -181 0
-10 -217 0
-10 -226 0
-10 -253 0
-11 -29 0
-11 -38 0
-11 -74 0
-11 -101 0
-11 -110 0
-11 -128 0
-11 -155 0
-11 -164 0
-11 -173 0
-11 -182 0
-11 -218 0
-11 -227 0
-11 -254 0
-12 -30 0
-12 -39 0
-12 -75 0
-12 -102 0
-12 -111 0
-12 -129 0
-12 -156 0
-12 -165 0
-12 -174 0
-12 -183 0
-12 -219 0
-12 -228 0
-12 -255 0
-13 -31 0
-13 -40 0
-13 -76 0
-13 -103 0
-13 -112 0
-13 -130 0
-13 -157 0
-13 -166 0
-13 -175 0
-13 -184 0
-13 -220 0
-13 -229 0
-13 -256 0
-14 -32 0
-14 -41 0
-14 -77 0
-14 -104 0
-14 -113 0
-14 -131 0
-14 -158 0
-14 -167 0
-14 -176 0
-14 -185 0
-14 -221 0
-14 -230 0
-14 -257 0
-15 -33 0
-15 -42 0
-15 -78 0
-15 -105 0
-15 -114 0
-15 -132 0
-15 -159 0
-15 -168 0
-15 -177 0
-15 -186 0
-15 -222 0
-15 -231 0
-15 -258 0
-16 -34 0
-16 -43 0
-16 -79 0
-16 -106 0
-16 -115 0
-16 -133 0
-16 -160 0
-16 -169 0
-16 -178 0
-16 -187 0
-16 -223 0
-16 -232 0
-16 -259 0
-17 -35 0
-17 -44 0
-17 -80 0
-17 -107 0
-17 -116 0
-17 -134 0
-17 -161 0
-17 -170 0
-17 -179 0
-17 -188 0
-17 -224 0
-17 -233 0
-17 -260 0
-18 -36 0
-18 -45 0
-18 -81 0
-18 -108 0
-18 -117 0
-18 -135 0
-18 -162 0
-18 -171 0
-18 -180 0
-18 -189 0
-18 -225 0
-18 -234 0
-18 -261 0
-19 -28 0
-19 -37 0
-19 -46 0
-19 -55 0
-19 -64 0
-19 -73 0
-19 -100 0
-19 -109 0
-19 -136 0
-19 -163 0
-19 -172 0
-19 -181 0
-19 -190 0
-19 -199 0
-19 -208 0
-19 -235 0
-19 -253 0
-20 -29 0
-20 -38 0
-20 -47 0
-20 -56 0
-20 -65 0
-20 -74 0
-20 -101 0
-20 -110 0
-20 -137 0
-20 -164 0
-20 -173 0
-20 -182 0
-20 -191 0
-20 -200 0
-20 -209 0
-20 -236 0
-20 -254 0
-21 -30 0
-21 -39 0
-21 -48 0
-21 -57 0
-21 -66 0
-21 -75 0
-21 -102 0
-21 -111 0
-21 -138 0
-21 -165 0
-21 -174 0
-21 -183 0
-21 -192 0
-21 -201 0
-21 -210 0
-21 -237 0
-21 -255 0
-22 -31 0
-22 -40 0
-22 -49 0
-22 -58 0
-22 -67 0
-22 -76 0
-22 -103 0
-22 -112 0
-22 -139 0
-22 -166 0
-22 -175 0
-22 -184 0
-22 -193 0
-22 -202 0
-22 -211 0
-22 -238 0
-22 -256 0
-23 -32 0
-23 -41 0
-23 -50 0
-23 -59 0
-23 -68 0
-23 -77 0
-23 -104 0
-23 -113 0
-23 -140 0
-23 -167 0
-23 -176 0
-23 -185 0
-23 -194 0
-23 -203 0
-23 -212 0
-23 -239 0
-23 -257 0
-24 -33 0
-24 -42 0
-24 -51 0
-24 -60 0
-24 -69 0
-24 -78 0
-24 -105 0
-24 -114 0
-24 -141 0
-24 -168 0
-24 -177 0
-24 -186 0
-24 -195 0
-24 -204 0
-24 -213 0
-24 -240 0
-24 -258 0
-25 -34 0
-25 -43 0
-25 -52 0
-25 -61 0
-25 -70 0
-25 -79 0
-25 -106 0
-25 -115 0
-25 -142 0
-25 -169 0
-25 -178 0
-25 -187 0
-25 -196 0
-25 -205 0
-25 -214 0
-25 -241 0
-25 -259 0
-26 -35 0
-26 -44 0
-26 -53 0
-26 -62 0
-26 -71 0
-26 -80 0
-26 -107 0
-26 -116 0
-26 -143 0
-26 -170 0
-26 -179 0
-26 -188 0
-26 -197 0
-26 -206 0
-26 -215 0
-26 -242 0
-26 -260 0
-27 -36 0
-27 -45 0
-27 -54 0
-27 -63 0
-27 -72 0
-27 -81 0
-27 -108 0
-27 -117 0
-27 -144 0
-27 -171 0
-27 -180 0
-27 -189 0
-27 -198 0
-27 -207 0
-27 -216 0
-27 -243 0
-27 -261 0
-28 -37 0
-28 -55 0
-28 -73 0
-28 -82 0
-28 -91 0
-28 -118 0
-28 -127 0
-28 -136 0
-28 -145 0
-28 -154 0
-28 -181 0
-28 -190 0
-28 -199 0
-28 -235 0
-28 -244 0
-28 -253 0
-29 -38 0
-29 -56 0
-29 -74 0
-29 -83 0
-29 -92 0
-29 -119 0
-29 -128 0
-29 -137 0
-29 -146 0
-29 -155 0
-29 -182 0
-29 -191 0
-29 -200 0
-29 -236 0
-29 -245 0
-29 -254 0
-30 -39 0
-30 -57 0
-30 -75 0
-30 -84 0
-30 -93 0
-30 -120 0
-30 -129 0
-30 -138 0
-30 -147 0
-30 -156 0
-30 -183 0
-30 -192 0
-30 -201 0
-30 -237 0
-30 -246 0
-30 -255 0
-31 -40 0
-31 -58 0
-31 -76 0
-31 -85 0
-31 -94 0
-31 -121 0
-31 -130 0
-31 -139 0
-31 -148 0
-31 -157 0
-31 -184 0
-31 -193 0
-31 -202 0
-31 -238 0
-31 -247 0
-31 -256 0
-32 -41 0
-32 -59 0
-32 -77 0
-32 -86 0
-32 -95 0
-32 -122 0
-32 -131 0
-32 -140 0
-32 -149 0
-32 -158 0
-32 -185 0
-32 -194 0
-32 -203 0
-32 -239 0
-32 -248 0
-32 -257 0
-33 -42 0
-33 -60 0
-33 -78 0
-33 -87 0
-33 -96 0
-33 -123 0
-33 -132 0
-33 -141 0
-33 -150 0
-33 -159 0
-33 -186 0
-33 -195 0
-33 -204 0
-33 -240 0
-33 -249 0
-33 -258 0
-34 -43 0
-34 -61 0
-34 -79 0
-34 -88 0
-34 -97 0
-34 -124 0
-34 -133 0
-34 -142 0
-34 -151 0
-34 -160 0
-34 -187 0
-34 -196 0
-34 -205 0
-34 -241 0
-34 -250 0
-34 -259 0
-35 -44 0
-35 -62 0
-35 -80 0
-35 -89 0
-35 -98 0
-35 -125 0
-35 -134 0
-35 -143 0
-35 -152 0
-35 -161 0
-35 -188 0
-35 -197 0
-35 -206 0
-35 -242 0
-35 -251 0
-35 -260 0
-36 -45 0
-36 -63 0
-36 -81 0
-36 -90 0
-36 -99 0
-36 -126 0
-36 -135 0
-36 -144 0
-36 -153 0
-36 -162 0
-36 -189 0
-36 -198 0
-36 -207 0
-36 -243 0
-36 -252 0
-36 -261 0
-37 -46 0
-37 -64 0
-37 -82 0
-37 -91 0
-37 -118 0
-37 -127 0
-37 -136 0
-37 -154 0
-37 -163 0
-37 -172 0
-37 -181 0
-37 -190 0
-37 -199 0
-37 -208 0
-37 -217 0
-37 -226 0
-37 -235 0
-37 -244 0
-37 -253 0
-37 -262 0
-38 -47 0
-38 -65 0
-38 -83 0
-38 -92 0
-38 -119 0
-38 -128 0
-38 -137 0
-38 -155 0
-38 -164 0
-38 -173 0
-38 -182 0
-38 -191 0
-38 -200 0
-38 -209 0
-38 -218 0
-38 -227 0
-38 -236 0
-38 -245 0
-38 -254 0
-38 -263 0
-39 -48 0
-39 -66 0
-39 -84 0
-39 -93 0
-39 -120 0
-39 -129 0
-39 -138 0
-39 -156 0
-39 -165 0
-39 -174 0
-39 -183 0
-39 -192 0
-39 -201 0
-39 -210 0
-39 -219 0
-39 -228 0
-39 -237 0
-39 -246 0
-39 -255 0
-39 -264 0
-40 -49 0
-40 -67 0
-40 -85 0
-40 -94 0
-40 -121 0
-40 -130 0
-40 -139 0
-40 -157 0
-40 -166 0
-40 -175 0
-40 -184 0
-40 -193 0
-40 -202 0
-40 -211 0
-40 -220 0
-40 -229 0
-40 -238 0
-40 -247 0
-40 -256 0
-40 -265 0
-41 -50 0
-41 -68 0
-41 -86 0
-41 -95 0
-41 -122 0
-41 -131 0
-41 -140 0
-41 -158 0
-41 -167 0
-41 -176 0
-41 -185 0
-41 -194 0
-41 -203 0
-41 -212 0
-41 -221 0
-41 -230 0
-41 -239 0
-41 -248 0
-41 -257 0
-41 -266 0
-42 -51 0
-42 -69 0
-42 -87 0
-42 -96 0
-42 -123 0
-42 -132 0
-42 -141 0
-42 -159 0
-42 -168 0
-42 -177 0
-42 -186 0
-42 -195 0
-42 -204 0
-42 -213 0
-42 -222 0
-42 -231 0
-42 -240 0
-42 -249 0
-42 -258 0
-42 -267 0
-43 -52 0
-43 -70 0
-43 -88 0
-43 -97 0
-43 -124 0
-43 -133 0
-43 -142 0
-43 -160 0
-43 -169 0
-43 -178 0
-43 -187 0
-43 -196 0
-43 -205 0
-43 -214 0
-43 -223 0
-43 -232 0
-43 -241 0
-43 -250 0
-43 -259 0
-43 -268 0
-44 -53 0
-44 -71 0
-44 -89 0
-44 -98 0
-44 -125 0
-44 -134 0
-44 -143 0
-44 -161 0
-44 -170 0
-44 -179 0
-44 -188 0
-44 -197 0
-44 -206 0
-44 -215 0
-44 -224 0
-44 -233 0
-44 -242 0
-44 -251 0
-44 -260 0
-44 -269 0
-45 -54 0
-45 -72 0
-45 -90 0
-45 -99 0
-45 -126 0
-45 -135 0
-45 -144 0
-45 -162 0
-45 -171 0
-45 -180 0
-45 -189 0
-45 -198 0
-45 -207 0
-45 -216 0
-45 -225 0
-45 -234 0
-45 -243 0
-45 -252 0
-45 -261 0
-45 -270 0
-46 -82 0
-46 -109 0
-46 -118 0
-46 -127 0
-46 -136 0
-46 -154 0
-46 -199 0
-46 -208 0
-46 -226 0
-46 -235 0
-46 -244 0
-46 -253 0
-46 -262 0
-47 -83 0
-47 -110 0
-47 -119 0
-47 -128 0
-47 -137 0
-47 -155 0
-47 -200 0
-47 -209 0
-47 -227 0
-47 -236 0
-47 -245 0
-47 -254 0
-47 -263 0
-48 -84 0
-48 -111 0
-48 -120 0
-48 -129 0
-48 -138 0
-48 -156 0
-48 -201 0
-48 -210 0
-48 -228 0
-48 -237 0
-48 -246 0
-48 -255 0
-48 -264 0
-49 -85 0
-49 -112 0
-49 -121 0
-49 -130 0
-49 -139 0
-49 -157 0
-49 -202 0
-49 -211 0
-49 -229 0
-49 -238 0
-49 -247 0
-49 -256 0
-49 -265 0
-50 -86 0
-50 -113 0
-50 -122 0
-50 -131 0
-50 -140 0
-50 -158 0
-50 -203 0
-50 -212 0
-50 -230 0
-50 -239 0
-50 -248 0
-50 -257 0
-50 -266 0
-51 -87 0
-51 -114 0
-51 -123 0
-51 -132 0
-51 -141 0
-51 -159 0
-51 -204 0
-51 -213 0
-51 -231 0
-51 -240 0
-51 -249 0
-51 -258 0
-51 -267 0
-52 -88 0
-52 -115 0
-52 -124 0
-52 -133 0
-52 -142 0
-52 -160 0
-52 -205 0
-52 -214 0
-52 -232 0
-52 -241 0
-52 -250 0
-52 -259 0
-52 -268 0
-53 -89 0
-53 -116 0
-53 -125 0
-53 -134 0
-53 -143 0
-53 -161 0
-53 -206 0
-53 -215 0
-53 -233 0
-53 -242 0
-53 -251 0
-53 -260 0
-53 -269 0
-54 -90 0
-54 -117 0
-54 -126 0
-54 -135 0
-54 -144 0
-54 -162 0
-54 -207 0
-54 -216 0
-54 -234 0
-54 -243 0
-54 -252 0
-54 -261 0
-54 -270 0
-55 -91 0
-55 -109 0
-55 -154 0
-55 -163 0
-55 -190 0
-55 -217 0
-55 -226 0
-55 -244 0
-55 -253 0
-56 -92 0
-56 -110 0
-56 -155 0
-56 -164 0
-56 -191 0
-56 -218 0
-56 -227 0
-56 -245 0
-56 -254 0
-57 -93 0
-57 -111 0
-57 -156 0
-57 -165 0
-57 -192 0
-57 -219 0
-57 -228 0
-57 -246 0
-57 -255 0
-58 -94 0
-58 -112 0
-58 -157 0
-58 -166 0
-58 -193 0
-58 -220 0
-58 -229 0
-58 -247 0
-58 -256 0
-59 -95 0
-59 -113 0
-59 -158 0
-59 -167 0
-59 -194 0
-59 -221 0
-59 -230 0
-59 -248 0
-59 -257 0
-60 -96 0
-60 -114 0
-60 -159 0
-60 -168 0
-60 -195 0
-60 -222 0
-60 -231 0
-60 -249 0
-60 -258 0
-61 -97 0
-61 -115 0
-61 -160 0
-61 -169 0
-61 -196 0
-61 -223 0
-61 -232 0
-61 -250 0
-61 -259 0
-62 -98 0
-62 -116 0
-62 -161 0
-62 -170 0
-62 -197 0
-62 -224 0
-62 -233 0
-62 -251 0
-62 -260 0
-63 -99 0
-63 -117 0
-63 -162 0
-63 -171 0
-63 -198 0
-63 -225 0
-63 -234 0
-63 -252 0
-63 -261 0
-64 -73 0
-64 -91 0
-64 -109 0
-64 -136 0
-64 -154 0
-64 -163 0
-64 -199 0
-64 -217 0
-64 -226 0
-64 -244 0
-64 -262 0
-65 -74 0
-65 -92 0
-65 -110 0
-65 -137 0
-65 -155 0
-65 -164 0
-65 -200 0
-65 -218 0
-65 -227 0
-65 -245 0
-65 -263 0
-66 -75 0
-66 -93 0
-66 -111 0
-66 -138 0
-66 -156 0
-66 -165 0
-66 -201 0
-66 -219 0
-66 -228 0
-66 -246 0
-66 -264 0
-67 -76 0
-67 -94 0
-67 -112 0
-67 -139 0
-67 -157 0
-67 -166 0
-67 -202 0
-67 -220 0
-67 -229 0
-67 -247 0
-67 -265 0
-68 -77 0
-68 -95 0
-68 -113 0
-68 -140 0
-68 -158 0
-68 -167 0
-68 -203 0
-68 -221 0
-68 -230 0
-68 -248 0
-68 -266 0
-69 -78 0
-69 -96 0
-69 -114 0
-69 -141 0
-69 -159 0
-69 -168 0
-69 -204 0
-69 -222 0
-69 -231 0
-69 -249 0
-69 -267 0
-70 -79 0
-70 -97 0
-70 -115 0
-70 -142 0
-70 -160 0
-70 -169 0
-70 -205 0
-70 -223 0
-70 -232 0
-70 -250 0
-70 -268 0
-71 -80 0
-71 -98 0
-71 -116 0
-71 -143 0
-71 -161 0
-71 -170 0
-71 -206 0
-71 -224 0
-71 -233 0
-71 -251 0
-71 -269 0
-72 -81 0
-72 -99 0
-72 -117 0
-72 -144 0
-72 -162 0
-72 -171 0
-72 -207 0
-72 -225 0
-72 -234 0
-72 -252 0
-72 -270 0
-73 -82 0
-73 -100 0
-73 -109 0
-73 -118 0
-73 -127 0
-73 -145 0
-73 -154 0
-73 -181 0
-73 -208 0
-73 -217 0
-73 -235 0
-73 -244 0
-73 -253 0
-74 -83 0
-74 -101 0
-74 -110 0
-74 -119 0
-74 -128 0
-74 -146 0
-74 -155 0
-74 -182 0
-74 -209 0
-74 -218 0
-74 -236 0
-74 -245 0
-74 -254 0
-75 -84 0
-75 -102 0
-75 -111 0
-75 -120 0
-75 -129 0
-75 -147 0
-75 -156 0
-75 -183 0
-75 -210 0
-75 -219 0
-75 -237 0
-75 -246 0
-75 -255 0
-76 -85 0
-76 -103 0
-76 -112 0
-76 -121 0
-76 -130 0
-76 -148 0
-76 -157 0
-76 -184 0
-76 -211 0
-76 -220 0
-76 -238 0
-76 -247 0
-76 -256 0
-77 -86 0
-77 -104 0
-77 -113 0
-77 -122 0
-77 -131 0
-77 -149 0
-77 -158 0
-77 -185 0
-77 -212 0
-77 -221 0
-77 -239 0
-77 -248 0
-77 -257 0
-78 -87 0
-78 -105 0
-78 -114 0
-78 -123 0
-78 -132 0
-78 -150 0
-78 -159 0
-78 -186 0
-78 -213 0
-78 -222 0
-78 -240 0
-78 -249 0
-78 -258 0
-79 -88 0
-79 -106 0
-79 -115 0
-79 -124 0
-79 -133 0
-79 -151 0
-79 -160 0
-79 -187 0
-79 -214 0
-79 -223 0
-79 -241 0
-79 -250 0
-79 -259 0
-80 -89 0
-80 -107 0
-80 -116 0
-80 -125 0
-80 -134 0
-80 -152 0
-80 -161 0
-80 -188 0
-80 -215 0
-80 -224 0
-80 -242 0
-80 -251 0
-80 -260 0
-81 -90 0
-81 -108 0
-81 -117 0
-81 -126 0
-81 -135 0
-81 -153 0
-81 -162 0
-81 -189 0
-81 -216 0
-81 -225 0
-81 -243 0
-81 -252 0
-81 -261 0
-82 -91 0
-82 -100 0
-82 -136 0
-82 -145 0
-82 -208 0
-82 -217 0
-82 -226 0
-82 -235 0
-82 -262 0
-83 -92 0
-83 -101 0
-83 -137 0
-83 -146 0
-83 -209 0
-83 -218 0
-83 -227 0
-83 -236 0
-83 -263 0
-84 -93 0
-84 -102 0
-84 -138 0
-84 -147 0
-84 -210 0
-84 -219 0
-84 -228 0
-84 -237 0
-84 -264 0
-85 -94 0
-85 -103 0
-85 -139 0
-85 -148 0
-85 -211 0
-85 -220 0
-85 -229 0
-85 -238 0
-85 -265 0
-86 -95 0
-86 -104 0
-86 -140 0
-86 -149 0
-86 -212 0
-86 -221 0
-86 -230 0
-86 -239 0
-86 -266 0
-87 -96 0
-87 -105 0
-87 -141 0
-87 -150 0
-87 -213 0
-87 -222 0
-87 -231 0
-87 -240 0
-87 -267 0
-88 -97 0
-88 -106 0
-88 -142 0
-88 -151 0
-88 -214 0
-88 -223 0
-88 -232 0
-88 -241 0
-88 -268 0
-89 -98 0
-89 -107 0
-89 -143 0
-89 -152 0
-89 -215 0
-89 -224 0
-89 -233 0
-89 -242 0
-89 -269 0
-90 -99 0
-90 -108 0
-90 -144 0
-90 -153 0
-90 -216 0
-90 -225 0
-90 -234 0
-90 -243 0
-90 -270 0
-91 -100 0
-91 -109 0
-91 -118 0
-91 -154 0
-91 -172 0
-91 -199 0
-91 -217 0
-92 -101 0
-92 -110 0
-92 -119 0
-92 -155 0
-92 -173 0
-92 -200 0
-92 -218 0
-93 -102 0
-93 -111 0
-93 -120 0
-93 -156 0
-93 -174 0
-93 -201 0
-93 -219 0
-94 -103 0
-94 -112 0
-94 -121 0
-94 -157 0
-94 -175 0
-94 -202 0
-94 -220 0
-95 -104 0
-95 -113 0
-95 -122 0
-95 -158 0
-95 -176 0
-95 -203 0
-95 -221 0
-96 -105 0
-96 -114 0
-96 -123 0
-96 -159 0
-96 -177 0
-96 -204 0
-96 -222 0
-97 -106 0
-97 -115 0
-97 -124 0
-97 -160 0
-97 -178 0
-97 -205 0
-97 -223 0
-98 -107 0
-98 -116 0
-98 -125 0
-98 -161 0
-98 -179 0
-98 -206 0
-98 -224 0
-99 -108 0
-99 -117 0
-99 -126 0
-99 -162 0
-99 -180 0
-99 -207 0
-99 -225 0
-100 -127 0
-100 -136 0
-100 -145 0
-100 -154 0
-100 -172 0
-100 -226 0
-100 -235 0
-100 -253 0
-101 -128 0
-101 -137 0
-101 -146 0
-101 -155 0
-101 -173 0
-101 -227 0
-101 -236 0
-101 -254 0
-102 -129 0
-102 -138 0
-102 -147 0
-102 -156 0
-102 -174 0
-102 -228 0
-102 -237 0
-102 -255 0
-103 -130 0
-103 -139 0
-103 -148 0
-103 -157 0
-103 -175 0
-103 -229 0
-103 -238 0
-103 -256 0
-104 -131 0
-104 -140 0
-104 -149 0
-104 -158 0
-104 -176 0
-104 -230 0
-104 -239 0
-104 -257 0
-105 -132 0
-105 -141 0
-105 -150 0
-105 -159 0
-105 -177 0
-105 -231 0
-105 -240 0
-105 -258 0
-106 -133 0
-106 -142 0
-106 -151 0
-106 -160 0
-106 -178 0
-106 -232 0
-106 -241 0
-106 -259 0
-107 -134 0
-107 -143 0
-107 -152 0
-107 -161 0
-107 -179 0
-107 -233 0
-107 -242 0
-107 -260 0
-108 -135 0
-108 -144 0
-108 -153 0
-108 -162 0
-108 -180 0
-108 -234 0
-108 -243 0
-108 -261 0
-109 -118 0
-109 -136 0
-109 -145 0
-109 -163 0
-109 -172 0
-109 -190 0
-109 -199 0
-109 -208 0
-109 -217 0
-109 -226 0
-109 -262 0
-110 -119 0
-110 -137 0
-110 -146 0
-110 -164 0
-110 -173 0
-110 -191 0
-110 -200 0
-110 -209 0
-110 -218 0
-110 -227 0
-110 -263 0
-111 -120 0
-111 -138 0
-111 -147 0
-111 -165 0
-111 -174 0
-111 -192 0
-111 -201 0
-111 -210 0
-111 -219 0
-111 -228 0
-111 -264 0
-112 -121 0
-112 -139 0
-112 -148 0
-112 -166 0
-112 -175 0
-112 -193 0
-112 -202 0
-112 -211 0
-112 -220 0
-112 -229 0
-112 -265 0
-113 -122 0
-113 -140 0
-113 -149 0
-113 -167 0
-113 -176 0
-113 -194 0
-113 -203 0
-113 -212 0
-113 -221 0
-113 -230 0
-113 -266 0
-114 -123 0
-114 -141 0
-114 -150 0
-114 -168 0
-114 -177 0
-114 -195 0
-114 -204 0
-114 -213 0
-114 -222 0
-114 -231 0
-114 -267 0
-115 -124 0
-115 -142 0
-115 -151 0
-115 -169 0
-115 -178 0
-115 -196 0
-115 -205 0
-115 -214 0
-115 -223 0
-115 -232 0
-115 -268 0
-116 -125 0
-116 -143 0
-116 -152 0
-116 -170 0
-116 -179 0
-116 -197 0
-116 -206 0
-116 -215 0
-116 -224 0
-116 -233 0
-116 -269 0
-117 -126 0
-117 -144 0
-117 -153 0
-117 -171 0
-117 -180 0
-117 -198 0
-117 -207 0
-117 -216 0
-117 -225 0
-117 -234 0
-117 -270 0
-118 -127 0
-118 -136 0
-118 -145 0
-118 -154 0
-118 -163 0
-118 -172 0
-118 -208 0
-118 -217 0
-118 -226 0
-118 -244 0
-118 -253 0
-118 -262 0
-119 -128 0
-119 -137 0
-119 -146 0
-119 -155 0
-119 -164 0
-119 -173 0
-119 -209 0
-119 -218 0
-119 -227 0
-119 -245 0
-119 -254 0
-119 -263 0
-120 -129 0
-120 -138 0
-120 -147 0
-120 -156 0
-120 -165 0
-120 -174 0
-120 -210 0
-120 -219 0
-120 -228 0
-120 -246 0
-120 -255 0
-120 -264 0
-121 -130 0
-121 -139 0
-121 -148 0
-121 -157 0
-121 -166 0
-121 -175 0
-121 -211 0
-121 -220 0
-121 -229 0
-121 -247 0
-121 -256 0
-121 -265 0
-122 -131 0
-122 -140 0
-122 -149 0
-122 -158 0
-122 -167 0
-122 -176 0
-122 -212 0
-122 -221 0
-122 -230 0
-122 -248 0
-122 -257 0
-122 -266 0
-123 -132 0
-123 -141 0
-123 -150 0
-123 -159 0
-123 -168 0
-123 -177 0
-123 -213 0
-123 -222 0
-123 -231 0
-123 -249 0
-123 -258 0
-123 -267 0
-124 -133 0
-124 -142 0
-124 -151 0
-124 -160 0
-124 -169 0
-124 -178 0
-124 -214 0
-124 -223 0
-124 -232 0
-124 -250 0
-124 -259 0
-124 -268 0
-125 -134 0
-125 -143 0
-125 -152 0
-125 -161 0
-125 -170 0
-125 -179 0
-125 -215 0
-125 -224 0
-125 -233 0
-125 -251 0
-125 -260 0
-125 -269 0
-126 -135 0
-126 -144 0
-126 -153 0
-126 -162 0
-126 -171 0
-126 -180 0
-126 -216 0
-126 -225 0
-126 -234 0
-126 -252 0
-126 -261 0
-126 -270 0
-127 -136 0
-127 -145 0
-127 -154 0
-127 -172 0
-127 -190 0
-127 -199 0
-127 -226 0
-127 -235 0
-127 -244 0
-127 -253 0
-128 -137 0
-128 -146 0
-128 -155 0
-128 -173 0
-128 -191 0
-128 -200 0
-128 -227 0
-128 -236 0
-128 -245 0
-128 -254 0
-129 -138 0
-129 -147 0
-129 -156 0
-129 -174 0
-129 -192 0
-129 -201 0
-129 -228 0
-129 -237 0
-129 -246 0
-129 -255 0
-130 -139 0
-130 -148 0
-130 -157 0
-130 -175 0
-130 -193 0
-130 -202 0
-130 -229 0
-130 -238 0
-130 -247 0
-130 -256 0
-131 -140 0
-131 -149 0
-131 -158 0
-131 -176 0
-131 -194 0
-131 -203 0
-131 -230 0
-131 -239 0
-131 -248 0
-131 -257 0
-132 -141 0
-132 -150 0
-132 -159 0
-132 -177 0
-132 -195 0
-132 -204 0
-132 -231 0
-132 -240 0
-132 -249 0
-132 -258 0
-133 -142 0
-133 -151 0
-133 -160 0
-133 -178 0
-133 -196 0
-133 -205 0
-133 -232 0
-133 -241 0
-133 -250 0
-133 -259 0
-134 -143 0
-134 -152 0
-134 -161 0
-134 -179 0
-134 -197 0
-134 -206 0
-134 -233 0
-134 -242 0
-134 -251 0
-134 -260 0
-135 -144 0
-135 -153 0
-135 -162 0
-135 -180 0
-135 -198 0
-135 -207 0
-135 -234 0
-135 -243 0
-135 -252 0
-135 -261 0
-136 -163 0
-136 -199 0
-136 -208 0
-136 -235 0
-136 -262 0
-137 -164 0
-137 -200 0
-137 -209 0
-137 -236 0
-137 -263 0
-138 -165 0
-138 -201 0
-138 -210 0
-138 -237 0
-138 -264 0
-139 -166 0
-139 -202 0
-139 -211 0
-139 -238 0
-139 -265 0
-140 -167 0
-140 -203 0
-140 -212 0
-140 -239 0
-140 -266 0
-141 -168 0
-141 -204 0
-141 -213 0
-141 -240 0
-141 -267 0
-142 -169 0
-142 -205 0
-142 -214 0
-142 -241 0
-142 -268 0
-143 -170 0
-143 -206 0
-143 -215 0
-143 -242 0
-143 -269 0
-144 -171 0
-144 -207 0
-144 -216 0
-144 -243 0
-144 -270 0
-145 -163 0
-145 -190 0
-145 -199 0
-145 -217 0
-145 -244 0
-145 -262 0
-146 -164 0
-146 -191 0
-146 -200 0
-146 -218 0
-146 -245 0
-146 -263 0
-147 -165 0
-147 -192 0
-147 -201 0
-147 -219 0
-147 -246 0
-147 -264 0
-148 -166 0
-148 -193 0
-148 -202 0
-148 -220 0
-148 -247 0
-148 -265 0
-149 -167 0
-149 -194 0
-149 -203 0
-149 -221 0
-149 -248 0
-149 -266 0
-150 -168 0
-150 -195 0
-150 -204 0
-150 -222 0
-150 -249 0
-150 -267 0
-151 -169 0
-151 -196 0
-151 -205 0
-151 -223 0
-151 -250 0
-151 -268 0
-152 -170 0
-152 -197 0
-152 -206 0
-152 -224 0
-152 -251 0
-152 -269 0
-153 -171 0
-153 -198 0
-153 -207 0
-153 -225 0
-153 -252 0
-153 -270 0
-154 -163 0
-154 -181 0
-154 -190 0
-154 -208 0
-154 -217 0
-154 -226 0
-154 -235 0
-154 -244 0
-154 -262 0
-155 -164 0
-155 -182 0
-155 -191 0
-155 -209 0
-155 -218 0
-155 -227 0
-155 -236 0
-155 -245 0
-155 -263 0
-156 -165 0
-156 -183 0
-156 -192 0
-156 -210 0
-156 -219 0
-156 -228 0
-156 -237 0
-156 -246 0
-156 -264 0
-157 -166 0
-157 -184 0
-157 -193 0
-157 -211 0
-157 -220 0
-157 -229 0
-157 -238 0
-157 -247 0
-157 -265 0
-158 -167 0
-158 -185 0
-158 -194 0
-158 -212 0
-158 -221 0
-158 -230 0
-158 -239 0
-158 -248 0
-158 -266 0
-159 -168 0
-159 -186 0
-159 -195 0
-159 -213 0
-159 -222 0
-159 -231 0
-159 -240 0
-159 -249 0
-159 -267 0
-160 -169 0
-160 -187 0
-160 -196 0
-160 -214 0
-160 -223 0
-160 -232 0
-160 -241 0
-160 -250 0
-160 -268 0
-161 -170 0
-161 -188 0
-161 -197 0
-161 -215 0
-161 -224 0
-161 -233 0
-161 -242 0
-161 -251 0
-161 -269 0
-162 -171 0
-162 -189 0
-162 -198 0
-162 -216 0
-162 -225 0
-162 -234 0
-162 -243 0
-162 -252 0
-162 -270 0
-163 -190 0
-163 -208 0
-163 -217 0
-163 -244 0
-164 -191 0
-164 -209 0
-164 -218 0
-164 -245 0
-165 -192 0
-165 -210 0
-165 -219 0
-165 -246 0
-166 -193 0
-166 -211 0
-166 -220 0
-166 -247 0
-167 -194 0
-167 -212 0
-167 -221 0
-167 -248 0
-168 -195 0
-168 -213 0
-168 -222 0
-168 -249 0
-169 -196 0
-169 -214 0
-169 -223 0
-169 -250 0
-170 -197 0
-170 -215 0
-170 -224 0
-170 -251 0
-171 -198 0
-171 -216 0
-171 -225 0
-171 -252 0
-172 -244 0
-172 -253 0
-172 -262 0
-173 -245 0
-173 -254 0
-173 -263 0
-174 -246 0
-174 -255 0
-174 -264 0
-175 -247 0
-175 -256 0
-175 -265 0
-176 -248 0
-176 -257 0
-176 -266 0
-177 -249 0
-177 -258 0
-177 -267 0
-178 -250 0
-178 -259 0
-178 -268 0
-179 -251 0
-179 -260 0
-179 -269 0
-180 -252 0
-180 -261 0
-180 -270 0
-181 -208 0
-181 -217 0
-181 -235 0
-181 -244 0
-181 -262 0
-182 -209 0
-182 -218 0
-182 -236 0
-182 -245 0
-182 -263 0
-183 -210 0
-183 -219 0
-183 -237 0
-183 -246 0
-183 -264 0
-184 -211 0
-184 -220 0
-184 -238 0
-184 -247 0
-184 -265 0
-185 -212 0
-185 -221 0
-185 -239 0
-185 -248 0
-185 -266 0
-186 -213 0
-186 -222 0
-186 -240 0
-186 -249 0
-186 -267 0
-187 -214 0
-187 -223 0
-187 -241 0
-187 -250 0
-187 -268 0
-188 -215 0
-188 -224 0
-188 -242 0
-188 -251 0
-188 -269 0
-189 -216 0
-189 -225 0
-189 -243 0
-189 -252 0
-189 -270 0
-190 -199 0
-190 -208 0
-190 -217 0
-190 -244 0
-190 -262 0
-191 -200 0
-191 -209 0
-191 -218 0
-191 -245 0
-191 -263 0
-192 -201 0
-192 -210 0
-192 -219 0
-192 -246 0
-192 -264 0
-193 -202 0
-193 -211 0
-193 -220 0
-193 -247 0
-193 -265 0
-194 -203 0
-194 -212 0
-194 -221 0
-194 -248 0
-194 -266 0
-195 -204 0
-195 -213 0
-195 -222 0
-195 -249 0
-195 -267 0
-196 -205 0
-196 -214 0
-196 -223 0
-196 -250 0
-196 -268 0
-197 -206 0
-197 -215 0
-197 -224 0
-197 -251 0
-197 -269 0
-198 -207 0
-198 -216 0
-198 -225 0
-198 -252 0
-198 -270 0
-199 -208 0
-199 -217 0
-199 -226 0
-199 -244 0
-199 -253 0
-199 -262 0
-200 -209 0
-200 -218 0
-200 -227 0
-200 -245 0
-200 -254 0
-200 -263 0
-201 -210 0
-201 -219 0
-201 -228 0
-201 -246 0
-201 -255 0
-201 -264 0
-202 -211 0
-202 -220 0
-202 -229 0
-202 -247 0
-202 -256 0
-202 -265 0
-203 -212 0
-203 -221 0
-203 -230 0
-203 -248 0
-203 -257 0
-203 -266 0
-204 -213 0
-204 -222 0
-204 -231 0
-204 -249 0
-204 -258 0
-204 -267 0
-205 -214 0
-205 -223 0
-205 -232 0
-205 -250 0
-205 -259 0
-205 -268 0
-206 -215 0
-206 -224 0
-206 -233 0
-206 -251 0
-206 -260 0
-206 -269 0
-207 -216 0
-207 -225 0
-207 -234 0
-207 -252 0
-207 -261 0
-207 -270 0
-208 -217 0
-208 -226 0
-209 -218 0
-209 -227 0
-210 -219 0
-210 -228 0
-211 -220 0
-211 -229 0
-212 -221 0
-212 -230 0
-213 -222 0
-213 -231 0
-214 -223 0
-214 -232 0
-215 -224 0
-215 -233 0
-216 -225 0
-216 -234 0
-217 -226 0
-217 -253 0
-217 -262 0
-218 -227 0
-218 -254 0
-218 -263 0
-219 -228 0
-219 -255 0
-219 -264 0
-220 -229 0
-220 -256 0
-220 -265 0
-221 -230 0
-221 -257 0
-221 -266 0
-222 -231 0
-222 -258 0
-222 -267 0
-223 -232 0
-223 -259 0
-223 -268 0
-224 -233 0
-224 -260 0
-224 -269 0
-225 -234 0
-225 -261 0
-225 -270 0
-226 -244 0
-226 -262 0
-227 -245 0
-227 -263 0
-228 -246 0
-228 -264 0
-229 -247 0
-229 -265 0
-230 -248 0
-230 -266 0
-231 -249 0
-231 -267 0
-232 -250 0
-232 -268 0
-233 -251 0
-233 -269 0
-234 -252 0
-234 -270 0
-235 -253 0
-236 -254 0
-237 -255 0
-238 -256 0
-239 -257 0
-240 -258 0
-241 -259 0
-242 -260 0
-243 -261 0
-244 -253 0
-245 -254 0
-246 -255 0
-247 -256 0
-248 -257 0
-249 -258 0
-250 -259 0
-251 -260 0
-252 -261 0
-253 -262 0
-254 -263 0
-255 -264 0
-256 -265 0
-257 -266 0
-258 -267 0
-259 -268 0
-260 -269 0
-261 -270 0
